solving instance uflp nldep gunluk ../../../../../instances/uflp/gunluk/gunluk-40-80-7.txt square
Couenne 0.5.8 -- an Open-Source solver for Mixed Integer Nonlinear Optimization
Mailing list: couenne@list.coin-or.org
Instructions: http://www.coin-or.org/Couenne
couenne: 
ANALYSIS TEST: Reformulating problem: Couenne: new cutoff value 2.1046490896e+03 (2.75272 seconds)
2.7 seconds
NLP0012I 
              Num      Status      Obj             It       time                 Location
NLP0014I             1         OPT 346.35269       29 1.73398
Couenne: new cutoff value 3.4635356507e+02 (4.93585 seconds)
NLP0014I             2         OPT 346.35275       32 1.667374
Loaded instance "/tmp/jl_E605eV/model.nl"
Constraints:         3360
Variables:           3320 (40 integer)
Auxiliaries:          159 (0 integer)

Coin0506I Presolve 3551 (-10) rows, 3351 (-128) columns and 16541 (-138) elements
Clp0006I 0  Obj 0 Primal inf 4556.6781 (80)
Clp0006I 139  Obj 343.78637
Clp0000I Optimal - objective value 343.78637
Clp0032I Optimal objective 343.7863666 - 139 iterations time 0.062, Presolve 0.04
Clp0000I Optimal - objective value 343.78637
NLP Heuristic: time limit reached.
Clp0000I Optimal - objective value 343.78637
Optimality Based BT: 28 improved bounds
Probing: Couenne: new cutoff value 3.4635355616e+02 (8.98053 seconds)
0 improved bounds
Couenne: new cutoff value 3.4635335097e+02 (19.8377 seconds)
NLP Heuristic: time limit reached.
Cbc0031I 25 added rows had average density of 2
Cbc0013I At root node, 25 cuts changed objective from 343.78637 to 346.35335 in 8 passes
Cbc0014I Cut generator 0 (Couenne convexifier cuts) - 185 row cuts average 2.0 elements, 75 column cuts (75 active)
Cbc0004I Integer solution of 346.35335 found after 204 iterations and 0 nodes (13.11 seconds)
Cbc0001I Search completed - best objective 346.3533509690496, took 204 iterations and 0 nodes (13.12 seconds)
Cbc0035I Maximum depth 0, 0 variables fixed on reduced cost

 	"Finished"

Linearization cuts added at root node:       3561
Linearization cuts added in total:           3561  (separation time: 0.022247s)
Total solve time:                         13.1939s (13.1939s in branch-and-bound)
Lower bound:                              346.353
Upper bound:                              346.353  (gap: 0.00%)
Branch-and-bound nodes:                         0
Stats: /tmp/jl_E605eV/model.nl 3320 [var]   40 [int] 3360 [con]  159 [aux]   3561 [root]     3561 [tot] 0.022247 [sep]  13.1939 [time]  13.1974 [bb]         3.463534e+02 [lower]         3.463534e+02 [upper]       0 [nodes]
Performance of                           FBBT:	    0.06233s,       11 runs. fix:   0.181818 shrnk:    92.6207 ubd:          0 2ubd:          0 infeas:          0
Performance of                           OBBT:	    2.13457s,        1 runs. fix:          0 shrnk:    153.563 ubd:          0 2ubd:          0 infeas:          0
ERROR: LoadError: MathOptInterface.GetAttributeNotAllowed{MathOptInterface.ObjectiveBound}: Getting attribute MathOptInterface.ObjectiveBound() cannot be performed: AmplNLWriter.Optimizer does not support getting the attribute MathOptInterface.ObjectiveBound(). You may want to use a `CachingOptimizer` in `AUTOMATIC` mode or you may need to call `reset_optimizer` before doing this operation if the `CachingOptimizer` is in `MANUAL` mode.
Stacktrace:
  [1] get_fallback(model::AmplNLWriter.Optimizer, attr::MathOptInterface.ObjectiveBound)
    @ MathOptInterface ~/.julia/packages/MathOptInterface/gLl4d/src/attributes.jl:409
  [2] get(::AmplNLWriter.Optimizer, ::MathOptInterface.ObjectiveBound)
    @ MathOptInterface ~/.julia/packages/MathOptInterface/gLl4d/src/attributes.jl:390
  [3] _get_model_attribute(model::MathOptInterface.Utilities.CachingOptimizer{AmplNLWriter.Optimizer, MathOptInterface.Utilities.UniversalFallback{MathOptInterface.Utilities.Model{Float64}}}, attr::MathOptInterface.ObjectiveBound)
    @ MathOptInterface.Utilities ~/.julia/packages/MathOptInterface/gLl4d/src/Utilities/cachingoptimizer.jl:865
  [4] get(model::MathOptInterface.Utilities.CachingOptimizer{AmplNLWriter.Optimizer, MathOptInterface.Utilities.UniversalFallback{MathOptInterface.Utilities.Model{Float64}}}, attr::MathOptInterface.ObjectiveBound)
    @ MathOptInterface.Utilities ~/.julia/packages/MathOptInterface/gLl4d/src/Utilities/cachingoptimizer.jl:900
  [5] get(b::MathOptInterface.Bridges.LazyBridgeOptimizer{MathOptInterface.Utilities.CachingOptimizer{AmplNLWriter.Optimizer, MathOptInterface.Utilities.UniversalFallback{MathOptInterface.Utilities.Model{Float64}}}}, attr::MathOptInterface.ObjectiveBound)
    @ MathOptInterface.Bridges ~/.julia/packages/MathOptInterface/gLl4d/src/Bridges/bridge_optimizer.jl:889
  [6] _get_model_attribute(model::MathOptInterface.Utilities.CachingOptimizer{MathOptInterface.Bridges.LazyBridgeOptimizer{MathOptInterface.Utilities.CachingOptimizer{AmplNLWriter.Optimizer, MathOptInterface.Utilities.UniversalFallback{MathOptInterface.Utilities.Model{Float64}}}}, MathOptInterface.Utilities.UniversalFallback{MathOptInterface.Utilities.Model{Float64}}}, attr::MathOptInterface.ObjectiveBound)
    @ MathOptInterface.Utilities ~/.julia/packages/MathOptInterface/gLl4d/src/Utilities/cachingoptimizer.jl:865
  [7] get(model::MathOptInterface.Utilities.CachingOptimizer{MathOptInterface.Bridges.LazyBridgeOptimizer{MathOptInterface.Utilities.CachingOptimizer{AmplNLWriter.Optimizer, MathOptInterface.Utilities.UniversalFallback{MathOptInterface.Utilities.Model{Float64}}}}, MathOptInterface.Utilities.UniversalFallback{MathOptInterface.Utilities.Model{Float64}}}, attr::MathOptInterface.ObjectiveBound)
    @ MathOptInterface.Utilities ~/.julia/packages/MathOptInterface/gLl4d/src/Utilities/cachingoptimizer.jl:900
  [8] _moi_get_result(model::MathOptInterface.Utilities.CachingOptimizer{MathOptInterface.Bridges.LazyBridgeOptimizer{MathOptInterface.Utilities.CachingOptimizer{AmplNLWriter.Optimizer, MathOptInterface.Utilities.UniversalFallback{MathOptInterface.Utilities.Model{Float64}}}}, MathOptInterface.Utilities.UniversalFallback{MathOptInterface.Utilities.Model{Float64}}}, args::MathOptInterface.ObjectiveBound)
    @ JuMP ~/.julia/packages/JuMP/i68GU/src/optimizer_interface.jl:1053
  [9] get(model::JuMP.Model, attr::MathOptInterface.ObjectiveBound)
    @ JuMP ~/.julia/packages/JuMP/i68GU/src/optimizer_interface.jl:1073
 [10] objective_bound(model::JuMP.Model)
    @ JuMP ~/.julia/packages/JuMP/i68GU/src/objective.jl:78
 [11] nl_uflp_nldep(filename::String, cost::Symbol, solver::AmplNLWriter.Optimizer, solver_params::Vector{Any}; solve::Bool, write_nl::Bool, with_cap_constraint::Bool)
    @ IterativePWLB ~/git/ipwlb/code/sources/IterativePWLB/src/nlsolver.jl:783
 [12] top-level scope
    @ ~/git/ipwlb/code/sources/IterativePWLB/test/couenne/uflp_nldep/script.jl:15
in expression starting at /home/ccontard/git/ipwlb/code/sources/IterativePWLB/test/couenne/uflp_nldep/script.jl:15
Generating Gunluk and Lee data file ../../../../../instances/uflp/gunluk/gunluk-40-80-7.txt
